0001 3
0002 19
0003 18
0004 13
0005 12
0006 19
0007 19
0008 3
0009 12
0010 18
0011 14
0012 19
0013 16
0014 14
0015 18
0016 18
0017 18
0018 19
0019 15
0020 8
0021 12
0022 14
0023 14
0024 18
0025 19
0026 10
0027 3
0028 18
0029 1
0030 17
0031 6
0032 19
0033 13
0034 12
0035 16
0036 14
0037 17
0038 15
0039 14
0040 16
0041 5
0042 14
0043 12
0044 19
0045 19
0046 14
0047 19
0048 18
0049 13
0050 16
0051 15
0052 15
0053 19
0054 18
0055 19
0056 10
0057 8
0058 18
0059 14
0060 14
0061 18
0062 18
0063 16
0064 19
0065 17
0066 17
0067 15
0068 16
0069 14
0070 16
0071 13
0072 18
0073 19
0074 17
0075 18
0076 15
0077 19
0078 18
0079 17
0080 14
0081 16
0082 13
0083 14
0084 18
0085 18
0086 3
0087 18
0088 10
0089 3
0090 6
0091 18
0092 1
0093 16
0094 2
0095 19
0096 13
0097 10
0098 3
0099 14
0100 15
0101 18
0102 19
0103 1
0104 13
0105 14
0106 17
0107 10
0108 19
0109 18
0110 18
0111 19
0112 19
0113 13
0114 13
0115 19
0116 13
0117 18
0118 16
0119 19
0120 2
0121 8
0122 15
0123 10
0124 12
0125 19
0126 19
0127 1
0128 14
0129 19
0130 17
0131 11
0132 14
0133 12
0134 18
0135 18
0136 17
0137 18
0138 17
0139 19
0140 19
0141 10
0142 19
0143 10
0144 3
0145 16
0146 14
0147 2
0148 16
0149 18
0150 5
0151 10
0152 19
0153 13
0154 6
0155 14
0156 13
0157 17
0158 12
0159 18
0160 17
0161 16
0162 19
0163 14
0164 18
0165 18
0166 15
0167 10
0168 11
0169 15
0170 16
0171 1
0172 12
0173 3
0174 6
0175 14
0176 18
0177 14
0178 16
0179 12
0180 3
0181 19
0182 2
0183 14
0184 18
0185 16
0186 15
0187 13
0188 19
0189 8
0190 8
0191 19
0192 12
0193 10
0194 9
0195 19
0196 19
0197 15
0198 15
0199 18
0200 16
0201 7
0202 13
0203 18
0204 17
0205 19
0206 15
0207 19
0208 12
0209 18
0210 2
0211 2
0212 0
0213 16
0214 3
0215 16
0216 19
0217 18
0218 14
0219 19
0220 13
0221 18
0222 19
0223 18
0224 13
0225 8
0226 19
0227 14
0228 6
0229 2
0230 18
0231 16
0232 17
0233 19
0234 18
0235 14
0236 18
0237 17
0238 16
0239 19
0240 17
0241 18
0242 12
0243 16
0244 1
0245 2
0246 3
0247 11
0248 10
0249 19
0250 10
0251 10
0252 4
0253 9
0254 9
0255 4
0256 8
0257 4
0258 7
0259 5
0260 18
0261 1
0262 16
0263 13
0264 12
0265 6
0266 15
0267 2
0268 1
0269 12
0270 1
0271 3
0272 6
0273 16
0274 8
0275 19
0276 13
0277 18
0278 14
0279 18
0280 11
0281 17
0282 19
0283 19
0284 18
0285 16
0286 16
0287 16
0288 6
0289 1
0290 16
0291 12
0292 8
0293 8
0294 1
0295 13
0296 1
0297 12
0298 18
0299 19
0300 13
0301 14
0302 10
0303 1
0304 18
0305 19
0306 12
0307 15
0308 18
0309 17
0310 16
0311 19
0312 18
0313 16
0314 14
0315 14
0316 14
0317 16
0318 13
0319 13
0320 6
0321 19
0322 18
0323 18
0324 1
0325 19
0326 19
0327 2
0328 3
0329 15
0330 18
0331 5
0332 13
0333 13
0334 16
0335 6
0336 12
0337 18
0338 14
0339 8
0340 15
0341 10
0342 16
0343 14
0344 19
0345 18
0346 18
0347 15
0348 19
0349 14
0350 16
0351 14
0352 6
0353 11
0354 14
0355 18
0356 18
0357 2
0358 14
0359 8
0360 19
0361 5
0362 14
0363 11
0364 17
0365 19
0366 8
0367 14
0368 19
0369 15
0370 14
0371 16
0372 8
0373 13
0374 16
0375 16
0376 13
0377 12
0378 16
0379 12
0380 1
0381 19
0382 18
0383 6
0384 19
0385 1
0386 1
0387 13
0388 13
0389 17
0390 15
0391 13
0392 13
0393 15
0394 15
0395 15
0396 17
0397 15
0398 15
0399 6
0400 16
0401 18
0402 15
0403 17
0404 19
0405 1
0406 8
0407 18
0408 18
0409 14
0410 19
0411 18
0412 13
0413 18
0414 3
0415 6
0416 18
0417 19
0418 14
0419 18
0420 13
0421 19
0422 16
0423 17
0424 19
0425 14
0426 13
0427 18
0428 19
0429 17
0430 6
0431 13
0432 3
0433 18
0434 14
0435 7
0436 14
0437 18
0438 12
0439 12
0440 19
0441 10
0442 6
0443 19
0444 14
0445 13
0446 1
0447 16
0448 8
0449 19
0450 14
0451 16
0452 3
0453 15
0454 17
0455 14
0456 15
0457 19
0458 13
0459 19
0460 18
0461 5
